200
1000
265
264
262
261
260
259
259
258
258
255
254
250
250
249
248
245
244
244
242
241
238
235
234
227
227
225
224
224
224
223
222
222
219
218
217
216
215
212
212
210
206
206
205
203
201
201
199
198
197
196
196
196
195
194
193
193
191
191
190
190
188
187
184
183
181
179
178
176
173
172
172
172
169
169
167
163
162
160
157
156
155
154
152
151
149
149
149
145
144
144
143
142
142
142
141
139
135
134
133
133
131
130
130
127
126
120
119
119
115
113
113
112
105
105
104
101
100
99
98
96
96
95
94
94
91
89
88
86
86
86
84
83
76
75
74
73
72
72
72
69
68
66
65
65
63
63
62
62
58
57
56
56
56
55
54
53
52
52
52
51
51
51
51
49
47
47
46
46
45
44
43
42
41
40
39
38
38
38
38
38
37
37
36
35
34
34
30
29
27
27
24
23
23
23
20
20
20
20
16
16
